
Gurobi 12.0.3 (linux64) logging started Fri Mar 27 07:51:13 2026

Set parameter LogFile to value "/home/solar-wind/WT_Solar_results_bigM100000_thread4/case24_ieee_rts_theta0.1_epsilon0.05_gurobi_seed20000_num_gen38_N_WDR200_load_scaling_factor1_EIFICA_T24_num_Solar5_num_WT10.txt"
Gurobi Optimizer version 12.0.3 build v12.0.3rc0 (linux64 - "Ubuntu 22.04.5 LTS")

CPU model: Intel(R) Xeon(R) Platinum 8378A CPU @ 3.00GHz, instruction set [SSE2|AVX|AVX2|AVX512]
Thread count: 32 physical cores, 64 logical processors, using up to 4 threads

Non-default parameters:
TimeLimit  14400
MIPGap  0.001
Seed  20000
Threads  4

Academic license 2721591 - for non-commercial use only - registered to fa___@mails.neu.edu.cn
Optimize a model with 552948 rows, 2025 columns and 50689288 nonzeros
Model fingerprint: 0xf67ba494
Model has 912 quadratic objective terms
Coefficient statistics:
  Matrix range     [3e-07, 6e+01]
  Objective range  [3e+01, 6e+01]
  QObjective range [4e-03, 2e-02]
  Bounds range     [0e+00, 0e+00]
  RHS range        [3e-02, 1e+03]
Presolve removed 448947 rows and 0 columns
Presolve time: 4.86s
Presolved: 104001 rows, 2899 columns, 2849944 nonzeros
Presolved model has 912 quadratic objective terms
Elapsed ordering time = 7s
Ordering time: 13.75s
Elapsed ordering time = 14s
Elapsed ordering time = 15s
Elapsed ordering time = 19s
Elapsed ordering time = 20s
Elapsed ordering time = 23s
Elapsed ordering time = 25s
Elapsed ordering time = 26s
Elapsed ordering time = 30s
Elapsed ordering time = 30s
Ordering time: 32.93s

Barrier statistics:
 Dense cols : 891
 AA' NZ     : 8.766e+07
 Factor NZ  : 5.115e+08 (roughly 4.0 GB of memory)
 Factor Ops : 6.136e+12 (roughly 35 seconds per iteration)
 Threads    : 4

                  Objective                Residual
Iter       Primal          Dual         Primal    Dual     Compl     Time
   0   5.85277537e+08 -3.04196294e+08  3.75e+04 9.96e+02  9.93e+05    83s
   1   4.88701105e+08 -2.39461388e+08  3.32e+04 8.82e+02  8.81e+05    83s
   2   4.65297545e+08 -2.43440961e+08  3.21e+04 8.53e+02  8.76e+05    83s
   3   4.19653026e+08 -2.62501057e+08  3.00e+04 7.92e+02  8.35e+05    84s
   4   3.89765923e+08 -2.70621371e+08  2.85e+04 7.51e+02  8.08e+05    84s
   5   3.34549208e+08 -2.64531998e+08  2.57e+04 6.72e+02  7.24e+05    84s
   6   2.86069726e+08 -2.84083689e+08  2.30e+04 5.99e+02  6.70e+05    84s
   7   2.34793494e+08 -3.19801341e+08  2.01e+04 5.14e+02  6.30e+05    84s
   8   2.09213771e+08 -3.25498683e+08  1.84e+04 4.70e+02  5.76e+05    84s
   9   1.81943673e+08 -3.58652264e+08  1.66e+04 4.21e+02  5.52e+05    84s
  10   1.53857196e+08 -3.70252848e+08  1.46e+04 3.67e+02  4.83e+05    84s
  11   1.32647101e+08 -3.78987909e+08  1.30e+04 3.25e+02  4.29e+05    84s
  12   1.11456703e+08 -3.89199701e+08  1.14e+04 2.80e+02  3.71e+05    84s
  13   9.30613135e+07 -4.03269370e+08  9.90e+03 2.40e+02  3.20e+05    84s
  14   7.39533171e+07 -4.21677570e+08  8.24e+03 1.97e+02  2.64e+05    84s
  15   5.98042325e+07 -4.37316387e+08  6.90e+03 1.63e+02  2.20e+05    85s
  16   4.85035604e+07 -4.51838790e+08  5.76e+03 1.35e+02  1.83e+05    85s
  17   3.73495330e+07 -4.66815017e+08  4.57e+03 1.06e+02  1.46e+05    85s
  18   2.78456027e+07 -4.76193163e+08  3.50e+03 8.09e+01  1.12e+05    85s
  19   1.44547860e+07 -4.84454610e+08  1.89e+03 4.30e+01  7.22e+04    85s
  20   4.66929040e+06 -4.52354500e+08  8.15e+02 1.35e+01  2.73e+04    85s
  21   3.74860554e+06 -4.11807561e+08  6.33e+02 1.05e+01  2.14e+04    85s
  22   3.02877544e+06 -3.72797105e+08  4.91e+02 8.16e+00  1.68e+04    85s
  23   2.27864942e+06 -3.22736870e+08  3.50e+02 5.76e+00  1.21e+04    85s
  24   1.68306753e+06 -2.71935823e+08  2.35e+02 3.84e+00  8.30e+03    85s
  25   1.16123068e+06 -2.18176763e+08  1.22e+02 2.01e+00  4.89e+03    85s
  26   9.08391207e+05 -1.54070943e+08  5.07e+01 8.69e-01  2.42e+03    85s
  27   8.26892682e+05 -1.17442252e+08  3.11e+01 5.29e-01  1.59e+03    85s
  28   7.91434827e+05 -1.01015364e+08  1.97e+01 3.47e-01  1.24e+03    86s
  29   7.76559421e+05 -8.72591333e+07  1.52e+01 2.66e-01  1.02e+03    86s
  30   7.67962653e+05 -7.87426205e+07  1.25e+01 2.18e-01  8.96e+02    86s
  31   7.59586516e+05 -6.85729759e+07  9.49e+00 1.65e-01  7.57e+02    86s
  32   7.50724727e+05 -4.04142185e+07  6.45e+00 8.30e-02  4.24e+02    87s
  33   7.47614694e+05 -3.73537168e+07  4.23e+00 6.39e-02  3.91e+02    87s
  34   7.45648236e+05 -3.32729432e+07  3.05e+00 5.21e-02  3.48e+02    89s
  35   7.35997215e+05 -1.53174735e+07  1.71e-04 3.23e+00  1.49e+02   108s
  36   7.30273101e+05  2.81006539e+05  3.92e-04 3.85e-02  4.17e+00   134s
  37   6.73379040e+05  5.52426063e+05  1.92e-04 1.17e-02  1.12e+00   193s
  38   6.49855145e+05  5.92745256e+05  1.23e-05 1.18e-03  5.30e-01   340s
  39   6.43637347e+05  6.28219199e+05  3.40e-05 4.22e-05  1.43e-01   543s
  40   6.41803800e+05  6.37288401e+05  1.44e-06 1.78e-06  4.19e-02   571s
  41   6.41491350e+05  6.38838058e+05  5.16e-07 6.41e-07  2.46e-02   596s
  42   6.41274437e+05  6.39930953e+05  7.71e-09 9.60e-09  1.25e-02   624s
  43   6.41100301e+05  6.40831219e+05  5.09e-10 8.98e-12  2.50e-03   652s
  44   6.41063028e+05  6.41022695e+05  6.19e-10 1.16e-10  3.74e-04   680s
  45   6.41058933e+05  6.41043324e+05  7.01e-10 6.26e-10  1.45e-04   710s
  46   6.41057255e+05  6.41051954e+05  1.05e-09 1.55e-11  4.92e-05   736s
  47   6.41056404e+05  6.41056366e+05  9.63e-09 1.15e-10  3.53e-07   763s
  48   6.41056398e+05  6.41056396e+05  1.26e-08 1.84e-10  1.71e-08   790s
  49   6.41056398e+05  6.41056398e+05  1.30e-07 5.31e-09  2.52e-09   817s

Barrier solved model in 49 iterations and 816.89 seconds (562.55 work units)
Optimal objective 6.41056398e+05

